
Gurobi 8.1.1 (mac64, Python) logging started Sat Jul 20 19:03:29 2019


Gurobi 8.1.1 (mac64, Python) logging started Sat Jul 20 19:20:18 2019


Gurobi 8.1.1 (mac64, Python) logging started Sat Jul 20 19:39:40 2019

Academic license - for non-commercial use only
